(declare-const delta_x Int)
(declare-const delta_y Int)
(declare-const delta___cost Int)
(assert (exists
         ((|y'?1| Int) (|x'?2| Int) (|__cost'?3| Int) (n?4 Int) (m?5 Int)
            (y?6 Int) (x?7 Int) (__cost?8 Int))
         (and (or (and (<= (- y?6) 0) (<= (- x?7) 0) (= (+ (- x?7) y?6) 0)
                         (< (+ (- n?4) x?7) 0))
                    (and (<= (- y?6) 0) (<= (- x?7) 0) (= (+ (- x?7) y?6) 0)
                           (<= (+ n?4 (- x?7)) 0) (< (+ (- m?5) y?6) 0)))
                (<= (- __cost?8) 0) (<= (+ (- __cost?8) -1) 0)
                (= (+ |y'?1| (- y?6) -1) 0) (= (+ |x'?2| (- x?7) -1) 0)
                (= (+ |__cost'?3| (- __cost?8) -1) 0)
                (= delta___cost (+ |__cost'?3| (- __cost?8)))
                (= delta_x (+ |x'?2| (- x?7))) (= delta_y (+ |y'?1| (- y?6))))))
(check-sat)
